(declare-fun temp934_1 () (_ BitVec 64))
(declare-fun temp934_2 () (_ BitVec 64))
(declare-fun var87778 () (_ BitVec 64))
(declare-fun k!0 () Bool)
(declare-fun ARGNAME_input_NAMEEND_DIM () (_ BitVec 64))
(declare-fun temp934_3 () (_ BitVec 64))
(declare-fun var3216467 () (_ BitVec 64))
(declare-fun temp934_4 () (_ BitVec 64))
(declare-fun temp934_5 () (_ BitVec 64))
(declare-fun var3814205 () (_ BitVec 64))
(declare-fun temp934_6 () (_ BitVec 64))
(declare-fun var3879741 () (_ BitVec 64))
(declare-fun temp934_7 () (_ BitVec 64))
(declare-fun var4469565 () (_ BitVec 64))
(declare-fun temp934_8 () (_ BitVec 64))
(declare-fun var4535101 () (_ BitVec 64))
(declare-fun temp934_9 () (_ BitVec 64))
(declare-fun ARGNAME_keepdim_NAMEEND () (_ BitVec 64))
(declare-fun temp934_10 () (_ BitVec 64))
(declare-fun var4600637 () (_ BitVec 64))
(declare-fun temp934_11 () (_ BitVec 64))
(declare-fun var4666173 () (_ BitVec 64))
(declare-fun temp934_12 () (_ BitVec 64))
(declare-fun var4731709 () (_ BitVec 64))
(declare-fun temp934_13 () (_ BitVec 64))
(declare-fun var4862781 () (_ BitVec 64))
(declare-fun temp934_15 () (_ BitVec 64))
(declare-fun temp934_14 () (_ BitVec 64))
(declare-fun temp934_16 () (_ BitVec 64))
(declare-fun var4928317 () (_ BitVec 64))
(assert (= temp934_1 #x0000000000000002))
(assert (= var87778
   (ite (= ARGNAME_input_NAMEEND_DIM temp934_1)
        #x0000000000000001
        #x0000000000000000)))
(assert (= temp934_2 #x0000000000000001))
(assert (= var87778 temp934_2))
(assert (= temp934_3 #x0000000000000002))
(assert (= var3216467
   (ite (bvslt ARGNAME_input_NAMEEND_DIM temp934_3)
        #x0000000000000001
        #x0000000000000000)))
(assert (= temp934_4 #x0000000000000000))
(assert (= var3216467 temp934_4))
(assert (= temp934_5 #x0000000000000000))
(assert (= var3814205 temp934_5))
(assert (= temp934_6 #x0000000000000001))
(assert (= var3879741 temp934_6))
(assert (= temp934_7 #x0000000000000000))
(assert (= var4469565 temp934_7))
(assert (= temp934_8 #x0000000000000001))
(assert (= var4535101 temp934_8))
(assert (= temp934_9 #x0000000000000000))
(assert (= ARGNAME_keepdim_NAMEEND temp934_9))
(assert (= temp934_10 #x0000000000000000))
(assert (= var4600637 temp934_10))
(assert (= temp934_11 #x0000000000000001))
(assert (= var4666173 temp934_11))
(assert (= temp934_12 #x0000000000000001))
(assert (= var4731709 temp934_12))
(assert (= temp934_13 #x0000000000000000))
(assert (= var4862781 temp934_13))
(assert (= temp934_15 #x0000000000000001))
(assert (= temp934_14 temp934_15))
(assert (= temp934_16 #x0000000000000001))
(assert (= var4928317 temp934_16))
(model-add temp934_1 () (_ BitVec 64) #x0000000000000002)
(model-add temp934_2 () (_ BitVec 64) #x0000000000000001)
(model-add var87778 () (_ BitVec 64) #x0000000000000001)
(model-del k!0)
(model-add ARGNAME_input_NAMEEND_DIM
           ()
           (_ BitVec 64)
           (ite k!0 #x0000000000000002 (bvnot #x0000000000000002)))




